0 4839
2401 4719
4802 4601
7203 4529
9604 4468
12005 4412
14406 4351
16807 4300
19208 4251
21609 4218
24010 4172
26411 4146
28812 4145
31213 4137
33614 4136
36015 4132
38416 4129
45619 4125
48020 4121
50421 4088
52822 4076
55223 4071
57624 4065
60025 4054
62426 4042
64827 4038
67228 4034
69629 4029
72030 4019
76832 4018
79233 4013
81634 4012
84035 4010
86436 4008
98441 4004
100842 4001
103243 4000
108045 3999
110446 3997
120050 3995
